DATASET = "thpack4";
INSTANCE = "072";

WIDTH = 233;
HEIGHT = 220;
LENGTH = 587;

NO_OF_SHAPES = 10;
size = [|
  96,95,68 |
  69,61,35 |
  107,70,55 |
  92,85,34 |
  96,60,31 |
  66,38,38 |
  63,57,36 |
  51,31,31 |
  100,75,44 |
  78,66,53 |
|];

verticality = [|
  1,1,1 |
  1,1,1 |
  1,1,1 |
  0,0,1 |
  0,1,1 |
  1,1,1 |
  1,1,1 |
  1,1,1 |
  0,1,1 |
  1,1,1 |
|];

box_count = [
  10,
  12,
  10,
  11,
  12,
  17,
  12,
  15,
  14,
  16,
];
